(declare-fun cmp255.i.i_43_101 () (_ BitVec 1))
(declare-fun narrow_43_103 () (_ BitVec 1))
(declare-fun cmp251.not.i.i_43_100 () (_ BitVec 1))
(declare-fun i142.i.i_43_99 () (_ BitVec 32))
(declare-fun i132.i.i_43_96 () (_ BitVec 32))
(declare-fun i140.i.i_43_98 () (_ BitVec 32))
(declare-fun i134.i.i_43_97 () (_ BitVec 32))
(declare-fun src_reg_43_29 () (_ BitVec 32))
(declare-fun src_reg_43_28 () (_ BitVec 32))
(declare-fun dst_reg_43_11 () (_ BitVec 32))
(declare-fun dst_reg_43_10 () (_ BitVec 32))
(declare-fun i30.i32_43_95 () (_ BitVec 32))
(declare-fun i29.i29_43_94 () (_ BitVec 32))
(declare-fun i28.i26_43_93 () (_ BitVec 32))
(declare-fun src_reg_43_27 () (_ BitVec 32))
(declare-fun i27.i23_43_92 () (_ BitVec 32))
(declare-fun src_reg_43_26 () (_ BitVec 32))
(declare-fun i26.i20_43_91 () (_ BitVec 64))
(declare-fun src_reg_43_25 () (_ BitVec 64))
(declare-fun i25.i17_43_90 () (_ BitVec 64))
(declare-fun src_reg_43_24 () (_ BitVec 64))
(declare-fun i24.i14_43_89 () (_ BitVec 64))
(declare-fun src_reg_43_23 () (_ BitVec 64))
(declare-fun i23.i11_43_88 () (_ BitVec 64))
(declare-fun src_reg_43_22 () (_ BitVec 64))
(declare-fun i22.i8_43_87 () (_ BitVec 64))
(declare-fun src_reg_43_21 () (_ BitVec 64))
(declare-fun i21.i5_43_86 () (_ BitVec 64))
(declare-fun src_reg_43_20 () (_ BitVec 64))
(declare-fun i.i2_43_85 () (_ BitVec 32))
(declare-fun i30.i_43_84 () (_ BitVec 32))
(declare-fun i29.i_43_83 () (_ BitVec 32))
(declare-fun i28.i_43_82 () (_ BitVec 32))
(declare-fun dst_reg_43_9 () (_ BitVec 32))
(declare-fun i27.i_43_81 () (_ BitVec 32))
(declare-fun dst_reg_43_8 () (_ BitVec 32))
(declare-fun i26.i_43_80 () (_ BitVec 64))
(declare-fun dst_reg_43_7 () (_ BitVec 64))
(declare-fun i25.i_43_79 () (_ BitVec 64))
(declare-fun dst_reg_43_6 () (_ BitVec 64))
(declare-fun i24.i_43_78 () (_ BitVec 64))
(declare-fun dst_reg_43_5 () (_ BitVec 64))
(declare-fun i23.i_43_77 () (_ BitVec 64))
(declare-fun dst_reg_43_4 () (_ BitVec 64))
(declare-fun i22.i_43_76 () (_ BitVec 64))
(declare-fun dst_reg_43_3 () (_ BitVec 64))
(declare-fun i21.i_43_75 () (_ BitVec 64))
(declare-fun dst_reg_43_2 () (_ BitVec 64))
(declare-fun i.i_43_74 () (_ BitVec 32))
(declare-fun other_branch_src_reg_43_71 () (_ BitVec 8))
(declare-fun other_branch_src_reg_43_70 () (_ BitVec 32))
(declare-fun other_branch_src_reg_43_69 () (_ BitVec 32))
(declare-fun other_branch_src_reg_43_68 () (_ BitVec 32))
(declare-fun other_branch_src_reg_43_67 () (_ BitVec 32))
(declare-fun other_branch_src_reg_43_66 () (_ BitVec 32))
(declare-fun other_branch_src_reg_43_65 () (_ BitVec 32))
(declare-fun other_branch_src_reg_43_64 () (_ BitVec 32))
(declare-fun other_branch_src_reg_43_63 () (_ BitVec 32))
(declare-fun other_branch_src_reg_43_62 () (_ BitVec 32))
(declare-fun other_branch_src_reg_43_61 () (_ BitVec 64))
(declare-fun other_branch_src_reg_43_60 () (_ BitVec 64))
(declare-fun other_branch_src_reg_43_59 () (_ BitVec 64))
(declare-fun other_branch_src_reg_43_58 () (_ BitVec 64))
(declare-fun other_branch_src_reg_43_57 () (_ BitVec 64))
(declare-fun other_branch_src_reg_43_56 () (_ BitVec 64))
(declare-fun other_branch_src_reg_43_55 () (_ BitVec 32))
(declare-fun other_branch_src_reg_43_54 () (_ BitVec 32))
(declare-fun other_branch_dst_reg_43_53 () (_ BitVec 8))
(declare-fun other_branch_dst_reg_43_52 () (_ BitVec 32))
(declare-fun other_branch_dst_reg_43_51 () (_ BitVec 32))
(declare-fun other_branch_dst_reg_43_50 () (_ BitVec 32))
(declare-fun other_branch_dst_reg_43_49 () (_ BitVec 32))
(declare-fun other_branch_dst_reg_43_48 () (_ BitVec 32))
(declare-fun other_branch_dst_reg_43_47 () (_ BitVec 32))
(declare-fun other_branch_dst_reg_43_46 () (_ BitVec 32))
(declare-fun other_branch_dst_reg_43_45 () (_ BitVec 32))
(declare-fun other_branch_dst_reg_43_44 () (_ BitVec 32))
(declare-fun other_branch_dst_reg_43_43 () (_ BitVec 64))
(declare-fun other_branch_dst_reg_43_42 () (_ BitVec 64))
(declare-fun other_branch_dst_reg_43_41 () (_ BitVec 64))
(declare-fun other_branch_dst_reg_43_40 () (_ BitVec 64))
(declare-fun other_branch_dst_reg_43_39 () (_ BitVec 64))
(declare-fun other_branch_dst_reg_43_38 () (_ BitVec 64))
(declare-fun other_branch_dst_reg_43_37 () (_ BitVec 32))
(declare-fun other_branch_dst_reg_43_36 () (_ BitVec 32))
(declare-fun src_reg_43_35 () (_ BitVec 8))
(declare-fun src_reg_43_34 () (_ BitVec 32))
(declare-fun src_reg_43_33 () (_ BitVec 32))
(declare-fun src_reg_43_32 () (_ BitVec 32))
(declare-fun src_reg_43_31 () (_ BitVec 32))
(declare-fun src_reg_43_30 () (_ BitVec 32))
(declare-fun src_reg_43_19 () (_ BitVec 32))
(declare-fun src_reg_43_18 () (_ BitVec 32))
(declare-fun dst_reg_43_17 () (_ BitVec 8))
(declare-fun dst_reg_43_16 () (_ BitVec 32))
(declare-fun dst_reg_43_15 () (_ BitVec 32))
(declare-fun dst_reg_43_14 () (_ BitVec 32))
(declare-fun dst_reg_43_13 () (_ BitVec 32))
(declare-fun dst_reg_43_12 () (_ BitVec 32))
(declare-fun dst_reg_43_1 () (_ BitVec 32))
(declare-fun dst_reg_43_0 () (_ BitVec 32))
(declare-fun cmp.not.i_43_106 () (_ BitVec 1))
(declare-fun i.i35_43_104 () (_ BitVec 32))
(declare-fun cmp2.not.i_43_109 () (_ BitVec 1))
(declare-fun i1.i_43_107 () (_ BitVec 32))
(declare-fun i349.i480.i_43_124 () (_ BitVec 32))
(declare-fun cond279.i482.i_43_126 () (_ BitVec 32))
(declare-fun i348.i478.i_43_123 () (_ BitVec 32))
(declare-fun cmp274.i481.i_43_125 () (_ BitVec 1))
(declare-fun i347.i474.i_43_120 () (_ BitVec 32))
(declare-fun cond269.i476.i_43_122 () (_ BitVec 32))
(declare-fun i346.i472.i_43_119 () (_ BitVec 32))
(declare-fun cmp264.i475.i_43_121 () (_ BitVec 1))
(declare-fun i357.i.i_43_116 () (_ BitVec 32))
(declare-fun cond324.i.i_43_118 () (_ BitVec 32))
(declare-fun add.i.i_43_115 () (_ BitVec 32))
(declare-fun cmp319.i.i_43_117 () (_ BitVec 1))
(declare-fun sub.i.i_43_111 () (_ BitVec 32))
(declare-fun cond314.i.i_43_113 () (_ BitVec 32))
(declare-fun cmp309.i.i_43_112 () (_ BitVec 1))
(declare-fun other_branch_src_reg_43_270 () (_ BitVec 8))
(declare-fun other_branch_src_reg_43_198 () (_ BitVec 8))
(declare-fun other_branch_src_reg_43_269 () (_ BitVec 32))
(declare-fun other_branch_src_reg_43_197 () (_ BitVec 32))
(declare-fun other_branch_src_reg_43_268 () (_ BitVec 32))
(declare-fun other_branch_src_reg_43_196 () (_ BitVec 32))
(declare-fun other_branch_src_reg_43_267 () (_ BitVec 32))
(declare-fun other_branch_src_reg_43_195 () (_ BitVec 32))
(declare-fun other_branch_src_reg_43_266 () (_ BitVec 32))
(declare-fun other_branch_src_reg_43_194 () (_ BitVec 32))
(declare-fun other_branch_src_reg_43_265 () (_ BitVec 32))
(declare-fun other_branch_src_reg_43_193 () (_ BitVec 32))
(declare-fun other_branch_src_reg_43_264 () (_ BitVec 32))
(declare-fun other_branch_src_reg_43_192 () (_ BitVec 32))
(declare-fun other_branch_src_reg_43_263 () (_ BitVec 32))
(declare-fun other_branch_src_reg_43_191 () (_ BitVec 32))
(declare-fun other_branch_src_reg_43_262 () (_ BitVec 32))
(declare-fun other_branch_src_reg_43_190 () (_ BitVec 32))
(declare-fun other_branch_src_reg_43_261 () (_ BitVec 32))
(declare-fun other_branch_src_reg_43_189 () (_ BitVec 32))
(declare-fun other_branch_src_reg_43_260 () (_ BitVec 64))
(declare-fun other_branch_src_reg_43_188 () (_ BitVec 64))
(declare-fun other_branch_src_reg_43_259 () (_ BitVec 64))
(declare-fun other_branch_src_reg_43_187 () (_ BitVec 64))
(declare-fun other_branch_src_reg_43_258 () (_ BitVec 64))
(declare-fun other_branch_src_reg_43_186 () (_ BitVec 64))
(declare-fun other_branch_src_reg_43_257 () (_ BitVec 64))
(declare-fun other_branch_src_reg_43_185 () (_ BitVec 64))
(declare-fun other_branch_src_reg_43_256 () (_ BitVec 64))
(declare-fun other_branch_src_reg_43_184 () (_ BitVec 64))
(declare-fun other_branch_src_reg_43_255 () (_ BitVec 64))
(declare-fun other_branch_src_reg_43_183 () (_ BitVec 64))
(declare-fun other_branch_src_reg_43_254 () (_ BitVec 32))
(declare-fun other_branch_src_reg_43_182 () (_ BitVec 32))
(declare-fun other_branch_src_reg_43_253 () (_ BitVec 32))
(declare-fun other_branch_src_reg_43_181 () (_ BitVec 32))
(declare-fun other_branch_dst_reg_43_252 () (_ BitVec 8))
(declare-fun other_branch_dst_reg_43_180 () (_ BitVec 8))
(declare-fun other_branch_dst_reg_43_251 () (_ BitVec 32))
(declare-fun other_branch_dst_reg_43_179 () (_ BitVec 32))
(declare-fun other_branch_dst_reg_43_250 () (_ BitVec 32))
(declare-fun other_branch_dst_reg_43_178 () (_ BitVec 32))
(declare-fun other_branch_dst_reg_43_249 () (_ BitVec 32))
(declare-fun other_branch_dst_reg_43_177 () (_ BitVec 32))
(declare-fun other_branch_dst_reg_43_248 () (_ BitVec 32))
(declare-fun other_branch_dst_reg_43_176 () (_ BitVec 32))
(declare-fun other_branch_dst_reg_43_247 () (_ BitVec 32))
(declare-fun other_branch_dst_reg_43_175 () (_ BitVec 32))
(declare-fun other_branch_dst_reg_43_246 () (_ BitVec 32))
(declare-fun other_branch_dst_reg_43_174 () (_ BitVec 32))
(declare-fun other_branch_dst_reg_43_245 () (_ BitVec 32))
(declare-fun other_branch_dst_reg_43_173 () (_ BitVec 32))
(declare-fun other_branch_dst_reg_43_244 () (_ BitVec 32))
(declare-fun other_branch_dst_reg_43_172 () (_ BitVec 32))
(declare-fun other_branch_dst_reg_43_243 () (_ BitVec 32))
(declare-fun other_branch_dst_reg_43_171 () (_ BitVec 32))
(declare-fun other_branch_dst_reg_43_242 () (_ BitVec 64))
(declare-fun other_branch_dst_reg_43_170 () (_ BitVec 64))
(declare-fun other_branch_dst_reg_43_241 () (_ BitVec 64))
(declare-fun other_branch_dst_reg_43_169 () (_ BitVec 64))
(declare-fun other_branch_dst_reg_43_240 () (_ BitVec 64))
(declare-fun other_branch_dst_reg_43_168 () (_ BitVec 64))
(declare-fun other_branch_dst_reg_43_239 () (_ BitVec 64))
(declare-fun other_branch_dst_reg_43_167 () (_ BitVec 64))
(declare-fun other_branch_dst_reg_43_238 () (_ BitVec 64))
(declare-fun other_branch_dst_reg_43_166 () (_ BitVec 64))
(declare-fun other_branch_dst_reg_43_237 () (_ BitVec 64))
(declare-fun other_branch_dst_reg_43_165 () (_ BitVec 64))
(declare-fun other_branch_dst_reg_43_236 () (_ BitVec 32))
(declare-fun other_branch_dst_reg_43_164 () (_ BitVec 32))
(declare-fun other_branch_dst_reg_43_235 () (_ BitVec 32))
(declare-fun other_branch_dst_reg_43_163 () (_ BitVec 32))
(declare-fun src_reg_43_234 () (_ BitVec 8))
(declare-fun src_reg_43_162 () (_ BitVec 8))
(declare-fun src_reg_43_233 () (_ BitVec 32))
(declare-fun src_reg_43_161 () (_ BitVec 32))
(declare-fun src_reg_43_232 () (_ BitVec 32))
(declare-fun src_reg_43_160 () (_ BitVec 32))
(declare-fun src_reg_43_231 () (_ BitVec 32))
(declare-fun src_reg_43_159 () (_ BitVec 32))
(declare-fun src_reg_43_230 () (_ BitVec 32))
(declare-fun src_reg_43_158 () (_ BitVec 32))
(declare-fun src_reg_43_229 () (_ BitVec 32))
(declare-fun src_reg_43_157 () (_ BitVec 32))
(declare-fun src_reg_43_228 () (_ BitVec 32))
(declare-fun src_reg_43_156 () (_ BitVec 32))
(declare-fun src_reg_43_227 () (_ BitVec 32))
(declare-fun src_reg_43_155 () (_ BitVec 32))
(declare-fun src_reg_43_226 () (_ BitVec 32))
(declare-fun src_reg_43_154 () (_ BitVec 32))
(declare-fun src_reg_43_225 () (_ BitVec 32))
(declare-fun src_reg_43_153 () (_ BitVec 32))
(declare-fun src_reg_43_224 () (_ BitVec 64))
(declare-fun src_reg_43_152 () (_ BitVec 64))
(declare-fun src_reg_43_223 () (_ BitVec 64))
(declare-fun src_reg_43_151 () (_ BitVec 64))
(declare-fun src_reg_43_222 () (_ BitVec 64))
(declare-fun src_reg_43_150 () (_ BitVec 64))
(declare-fun src_reg_43_221 () (_ BitVec 64))
(declare-fun src_reg_43_149 () (_ BitVec 64))
(declare-fun src_reg_43_220 () (_ BitVec 64))
(declare-fun src_reg_43_148 () (_ BitVec 64))
(declare-fun src_reg_43_219 () (_ BitVec 64))
(declare-fun src_reg_43_147 () (_ BitVec 64))
(declare-fun src_reg_43_218 () (_ BitVec 32))
(declare-fun src_reg_43_146 () (_ BitVec 32))
(declare-fun src_reg_43_217 () (_ BitVec 32))
(declare-fun src_reg_43_145 () (_ BitVec 32))
(declare-fun dst_reg_43_216 () (_ BitVec 8))
(declare-fun dst_reg_43_144 () (_ BitVec 8))
(declare-fun dst_reg_43_215 () (_ BitVec 32))
(declare-fun dst_reg_43_143 () (_ BitVec 32))
(declare-fun dst_reg_43_214 () (_ BitVec 32))
(declare-fun dst_reg_43_142 () (_ BitVec 32))
(declare-fun dst_reg_43_213 () (_ BitVec 32))
(declare-fun dst_reg_43_141 () (_ BitVec 32))
(declare-fun dst_reg_43_212 () (_ BitVec 32))
(declare-fun dst_reg_43_140 () (_ BitVec 32))
(declare-fun dst_reg_43_211 () (_ BitVec 32))
(declare-fun dst_reg_43_139 () (_ BitVec 32))
(declare-fun dst_reg_43_210 () (_ BitVec 32))
(declare-fun dst_reg_43_138 () (_ BitVec 32))
(declare-fun dst_reg_43_209 () (_ BitVec 32))
(declare-fun dst_reg_43_137 () (_ BitVec 32))
(declare-fun dst_reg_43_208 () (_ BitVec 32))
(declare-fun dst_reg_43_136 () (_ BitVec 32))
(declare-fun dst_reg_43_207 () (_ BitVec 32))
(declare-fun dst_reg_43_135 () (_ BitVec 32))
(declare-fun dst_reg_43_206 () (_ BitVec 64))
(declare-fun dst_reg_43_134 () (_ BitVec 64))
(declare-fun dst_reg_43_205 () (_ BitVec 64))
(declare-fun dst_reg_43_133 () (_ BitVec 64))
(declare-fun dst_reg_43_204 () (_ BitVec 64))
(declare-fun dst_reg_43_132 () (_ BitVec 64))
(declare-fun dst_reg_43_203 () (_ BitVec 64))
(declare-fun dst_reg_43_131 () (_ BitVec 64))
(declare-fun dst_reg_43_202 () (_ BitVec 64))
(declare-fun dst_reg_43_130 () (_ BitVec 64))
(declare-fun dst_reg_43_201 () (_ BitVec 64))
(declare-fun dst_reg_43_129 () (_ BitVec 64))
(declare-fun dst_reg_43_200 () (_ BitVec 32))
(declare-fun dst_reg_43_128 () (_ BitVec 32))
(declare-fun dst_reg_43_199 () (_ BitVec 32))
(declare-fun dst_reg_43_127 () (_ BitVec 32))
(assert (let ((a!1 (and (= cmp2.not.i_43_109 #b1)
                (and (= cmp.not.i_43_106 #b1) (= narrow_43_103 #b0))))
      (a!2 (and (= cmp2.not.i_43_109 #b0)
                (and (= cmp.not.i_43_106 #b1) (= narrow_43_103 #b0))))
      (a!3 (and (= i.i2_43_85 other_branch_src_reg_43_181)
                (= other_branch_src_reg_43_55 other_branch_src_reg_43_182)
                (= i21.i5_43_86 other_branch_src_reg_43_183)
                (= i22.i8_43_87 other_branch_src_reg_43_184)
                (= i23.i11_43_88 other_branch_src_reg_43_185)
                (= i24.i14_43_89 other_branch_src_reg_43_186)
                (= i25.i17_43_90 other_branch_src_reg_43_187)
                (= i26.i20_43_91 other_branch_src_reg_43_188)
                (= i27.i23_43_92 other_branch_src_reg_43_189)
                (= i28.i26_43_93 other_branch_src_reg_43_190)
                (= i29.i29_43_94 other_branch_src_reg_43_191)
                (= i30.i32_43_95 other_branch_src_reg_43_192)
                (= other_branch_src_reg_43_66 other_branch_src_reg_43_193)
                (= other_branch_src_reg_43_67 other_branch_src_reg_43_194)
                (= other_branch_src_reg_43_68 other_branch_src_reg_43_195)
                (= other_branch_src_reg_43_69 other_branch_src_reg_43_196)
                (= other_branch_src_reg_43_70 other_branch_src_reg_43_197)
                (= other_branch_src_reg_43_71 other_branch_src_reg_43_198)
                (= i.i_43_74 other_branch_dst_reg_43_163)
                (= other_branch_dst_reg_43_37 other_branch_dst_reg_43_164)
                (= i21.i_43_75 other_branch_dst_reg_43_165)
                (= i22.i_43_76 other_branch_dst_reg_43_166)
                (= i23.i_43_77 other_branch_dst_reg_43_167)
                (= i24.i_43_78 other_branch_dst_reg_43_168)
                (= i25.i_43_79 other_branch_dst_reg_43_169)
                (= i26.i_43_80 other_branch_dst_reg_43_170)
                (= i27.i_43_81 other_branch_dst_reg_43_171)
                (= i28.i_43_82 other_branch_dst_reg_43_172)
                (= i29.i_43_83 other_branch_dst_reg_43_173)
                (= i30.i_43_84 other_branch_dst_reg_43_174)
                (= other_branch_dst_reg_43_48 other_branch_dst_reg_43_175)
                (= other_branch_dst_reg_43_49 other_branch_dst_reg_43_176)
                (= other_branch_dst_reg_43_50 other_branch_dst_reg_43_177)
                (= other_branch_dst_reg_43_51 other_branch_dst_reg_43_178)
                (= other_branch_dst_reg_43_52 other_branch_dst_reg_43_179)
                (= other_branch_dst_reg_43_53 other_branch_dst_reg_43_180)
                (= #x00000001 src_reg_43_145)
                (= src_reg_43_19 src_reg_43_146)
                (= src_reg_43_20 src_reg_43_147)
                (= src_reg_43_21 src_reg_43_148)
                (= src_reg_43_22 src_reg_43_149)
                (= src_reg_43_23 src_reg_43_150)
                (= src_reg_43_24 src_reg_43_151)
                (= src_reg_43_25 src_reg_43_152)
                (= src_reg_43_26 src_reg_43_153)
                (= src_reg_43_27 src_reg_43_154)
                (= src_reg_43_28 src_reg_43_155)
                (= src_reg_43_29 src_reg_43_156)
                (= src_reg_43_30 src_reg_43_157)
                (= src_reg_43_31 src_reg_43_158)
                (= src_reg_43_32 src_reg_43_159)
                (= src_reg_43_33 src_reg_43_160)
                (= src_reg_43_34 src_reg_43_161)
                (= src_reg_43_35 src_reg_43_162)
                (= #x00000001 dst_reg_43_127)
                (= dst_reg_43_1 dst_reg_43_128)
                (= dst_reg_43_2 dst_reg_43_129)
                (= dst_reg_43_3 dst_reg_43_130)
                (= dst_reg_43_4 dst_reg_43_131)
                (= dst_reg_43_5 dst_reg_43_132)
                (= dst_reg_43_6 dst_reg_43_133)
                (= dst_reg_43_7 dst_reg_43_134)
                (= dst_reg_43_8 dst_reg_43_135)
                (= dst_reg_43_9 dst_reg_43_136)
                (= dst_reg_43_10 dst_reg_43_137)
                (= dst_reg_43_11 dst_reg_43_138)
                (= dst_reg_43_12 dst_reg_43_139)
                (= dst_reg_43_13 dst_reg_43_140)
                (= dst_reg_43_14 dst_reg_43_141)
                (= dst_reg_43_15 dst_reg_43_142)
                (= dst_reg_43_16 dst_reg_43_143)
                (= dst_reg_43_17 dst_reg_43_144)))
      (a!7 (=> (and (= cmp.not.i_43_106 #b1) (= narrow_43_103 #b0))
               (and (= #x00000001 i1.i_43_107)
                    (ite (= i1.i_43_107 #x00000001)
                         (= cmp2.not.i_43_109 #b1)
                         (= cmp2.not.i_43_109 #b0)))))
      (a!8 (=> (= narrow_43_103 #b0)
               (and (= #x00000001 i.i35_43_104)
                    (ite (= i.i35_43_104 #x00000001)
                         (= cmp.not.i_43_106 #b1)
                         (= cmp.not.i_43_106 #b0))))))
(let ((a!4 (and (=> (= narrow_43_103 #b1) a!3)
                (=> (and (= cmp.not.i_43_106 #b0) (= narrow_43_103 #b0)) a!3)
                (=> a!2 a!3)
                (=> a!1
                    (and (= i.i2_43_85 other_branch_src_reg_43_181)
                         (= other_branch_src_reg_43_55
                            other_branch_src_reg_43_182)
                         (= i21.i5_43_86 other_branch_src_reg_43_183)
                         (= i22.i8_43_87 other_branch_src_reg_43_184)
                         (= i23.i11_43_88 other_branch_src_reg_43_185)
                         (= i24.i14_43_89 other_branch_src_reg_43_186)
                         (= i25.i17_43_90 other_branch_src_reg_43_187)
                         (= i26.i20_43_91 other_branch_src_reg_43_188)
                         (= i27.i23_43_92 other_branch_src_reg_43_189)
                         (= i28.i26_43_93 other_branch_src_reg_43_190)
                         (= cond279.i482.i_43_126 other_branch_src_reg_43_191)
                         (= i30.i32_43_95 other_branch_src_reg_43_192)
                         (= other_branch_src_reg_43_66
                            other_branch_src_reg_43_193)
                         (= other_branch_src_reg_43_67
                            other_branch_src_reg_43_194)
                         (= other_branch_src_reg_43_68
                            other_branch_src_reg_43_195)
                         (= other_branch_src_reg_43_69
                            other_branch_src_reg_43_196)
                         (= other_branch_src_reg_43_70
                            other_branch_src_reg_43_197)
                         (= other_branch_src_reg_43_71
                            other_branch_src_reg_43_198)
                         (= i.i_43_74 other_branch_dst_reg_43_163)
                         (= other_branch_dst_reg_43_37
                            other_branch_dst_reg_43_164)
                         (= i21.i_43_75 other_branch_dst_reg_43_165)
                         (= i22.i_43_76 other_branch_dst_reg_43_166)
                         (= i23.i_43_77 other_branch_dst_reg_43_167)
                         (= i24.i_43_78 other_branch_dst_reg_43_168)
                         (= i25.i_43_79 other_branch_dst_reg_43_169)
                         (= i26.i_43_80 other_branch_dst_reg_43_170)
                         (= i27.i_43_81 other_branch_dst_reg_43_171)
                         (= i28.i_43_82 other_branch_dst_reg_43_172)
                         (= i29.i_43_83 other_branch_dst_reg_43_173)
                         (= cond269.i476.i_43_122 other_branch_dst_reg_43_174)
                         (= other_branch_dst_reg_43_48
                            other_branch_dst_reg_43_175)
                         (= other_branch_dst_reg_43_49
                            other_branch_dst_reg_43_176)
                         (= other_branch_dst_reg_43_50
                            other_branch_dst_reg_43_177)
                         (= other_branch_dst_reg_43_51
                            other_branch_dst_reg_43_178)
                         (= other_branch_dst_reg_43_52
                            other_branch_dst_reg_43_179)
                         (= other_branch_dst_reg_43_53
                            other_branch_dst_reg_43_180)
                         (= #x00000001 src_reg_43_145)
                         (= src_reg_43_19 src_reg_43_146)
                         (= src_reg_43_20 src_reg_43_147)
                         (= src_reg_43_21 src_reg_43_148)
                         (= src_reg_43_22 src_reg_43_149)
                         (= src_reg_43_23 src_reg_43_150)
                         (= src_reg_43_24 src_reg_43_151)
                         (= src_reg_43_25 src_reg_43_152)
                         (= src_reg_43_26 src_reg_43_153)
                         (= src_reg_43_27 src_reg_43_154)
                         (= src_reg_43_28 src_reg_43_155)
                         (= cond314.i.i_43_113 src_reg_43_156)
                         (= src_reg_43_30 src_reg_43_157)
                         (= src_reg_43_31 src_reg_43_158)
                         (= src_reg_43_32 src_reg_43_159)
                         (= src_reg_43_33 src_reg_43_160)
                         (= src_reg_43_34 src_reg_43_161)
                         (= src_reg_43_35 src_reg_43_162)
                         (= #x00000001 dst_reg_43_127)
                         (= dst_reg_43_1 dst_reg_43_128)
                         (= dst_reg_43_2 dst_reg_43_129)
                         (= dst_reg_43_3 dst_reg_43_130)
                         (= dst_reg_43_4 dst_reg_43_131)
                         (= dst_reg_43_5 dst_reg_43_132)
                         (= dst_reg_43_6 dst_reg_43_133)
                         (= dst_reg_43_7 dst_reg_43_134)
                         (= dst_reg_43_8 dst_reg_43_135)
                         (= dst_reg_43_9 dst_reg_43_136)
                         (= cond324.i.i_43_118 dst_reg_43_137)
                         (= dst_reg_43_11 dst_reg_43_138)
                         (= dst_reg_43_12 dst_reg_43_139)
                         (= dst_reg_43_13 dst_reg_43_140)
                         (= dst_reg_43_14 dst_reg_43_141)
                         (= dst_reg_43_15 dst_reg_43_142)
                         (= dst_reg_43_16 dst_reg_43_143)
                         (= dst_reg_43_17 dst_reg_43_144)))
                (= dst_reg_43_127 dst_reg_43_199)
                (= dst_reg_43_128 dst_reg_43_200)
                (= dst_reg_43_129 dst_reg_43_201)
                (= dst_reg_43_130 dst_reg_43_202)
                (= dst_reg_43_131 dst_reg_43_203)
                (= dst_reg_43_132 dst_reg_43_204)
                (= dst_reg_43_133 dst_reg_43_205)
                (= dst_reg_43_134 dst_reg_43_206)
                (= dst_reg_43_135 dst_reg_43_207)
                (= dst_reg_43_136 dst_reg_43_208)
                (= dst_reg_43_137 dst_reg_43_209)
                (= dst_reg_43_138 dst_reg_43_210)
                (= dst_reg_43_139 dst_reg_43_211)
                (= dst_reg_43_140 dst_reg_43_212)
                (= dst_reg_43_141 dst_reg_43_213)
                (= dst_reg_43_142 dst_reg_43_214)
                (= dst_reg_43_143 dst_reg_43_215)
                (= dst_reg_43_144 dst_reg_43_216)
                (= src_reg_43_145 src_reg_43_217)
                (= src_reg_43_146 src_reg_43_218)
                (= src_reg_43_147 src_reg_43_219)
                (= src_reg_43_148 src_reg_43_220)
                (= src_reg_43_149 src_reg_43_221)
                (= src_reg_43_150 src_reg_43_222)
                (= src_reg_43_151 src_reg_43_223)
                (= src_reg_43_152 src_reg_43_224)
                (= src_reg_43_153 src_reg_43_225)
                (= src_reg_43_154 src_reg_43_226)
                (= src_reg_43_155 src_reg_43_227)
                (= src_reg_43_156 src_reg_43_228)
                (= src_reg_43_157 src_reg_43_229)
                (= src_reg_43_158 src_reg_43_230)
                (= src_reg_43_159 src_reg_43_231)
                (= src_reg_43_160 src_reg_43_232)
                (= src_reg_43_161 src_reg_43_233)
                (= src_reg_43_162 src_reg_43_234)
                (= other_branch_dst_reg_43_163 other_branch_dst_reg_43_235)
                (= other_branch_dst_reg_43_164 other_branch_dst_reg_43_236)
                (= other_branch_dst_reg_43_165 other_branch_dst_reg_43_237)
                (= other_branch_dst_reg_43_166 other_branch_dst_reg_43_238)
                (= other_branch_dst_reg_43_167 other_branch_dst_reg_43_239)
                (= other_branch_dst_reg_43_168 other_branch_dst_reg_43_240)
                (= other_branch_dst_reg_43_169 other_branch_dst_reg_43_241)
                (= other_branch_dst_reg_43_170 other_branch_dst_reg_43_242)
                (= other_branch_dst_reg_43_171 other_branch_dst_reg_43_243)
                (= other_branch_dst_reg_43_172 other_branch_dst_reg_43_244)
                (= other_branch_dst_reg_43_173 other_branch_dst_reg_43_245)
                (= other_branch_dst_reg_43_174 other_branch_dst_reg_43_246)
                (= other_branch_dst_reg_43_175 other_branch_dst_reg_43_247)
                (= other_branch_dst_reg_43_176 other_branch_dst_reg_43_248)
                (= other_branch_dst_reg_43_177 other_branch_dst_reg_43_249)
                (= other_branch_dst_reg_43_178 other_branch_dst_reg_43_250)
                (= other_branch_dst_reg_43_179 other_branch_dst_reg_43_251)
                (= other_branch_dst_reg_43_180 other_branch_dst_reg_43_252)
                (= other_branch_src_reg_43_181 other_branch_src_reg_43_253)
                (= other_branch_src_reg_43_182 other_branch_src_reg_43_254)
                (= other_branch_src_reg_43_183 other_branch_src_reg_43_255)
                (= other_branch_src_reg_43_184 other_branch_src_reg_43_256)
                (= other_branch_src_reg_43_185 other_branch_src_reg_43_257)
                (= other_branch_src_reg_43_186 other_branch_src_reg_43_258)
                (= other_branch_src_reg_43_187 other_branch_src_reg_43_259)
                (= other_branch_src_reg_43_188 other_branch_src_reg_43_260)
                (= other_branch_src_reg_43_189 other_branch_src_reg_43_261)
                (= other_branch_src_reg_43_190 other_branch_src_reg_43_262)
                (= other_branch_src_reg_43_191 other_branch_src_reg_43_263)
                (= other_branch_src_reg_43_192 other_branch_src_reg_43_264)
                (= other_branch_src_reg_43_193 other_branch_src_reg_43_265)
                (= other_branch_src_reg_43_194 other_branch_src_reg_43_266)
                (= other_branch_src_reg_43_195 other_branch_src_reg_43_267)
                (= other_branch_src_reg_43_196 other_branch_src_reg_43_268)
                (= other_branch_src_reg_43_197 other_branch_src_reg_43_269)
                (= other_branch_src_reg_43_198 other_branch_src_reg_43_270)))
      (a!6 (=> a!1
               (and (= sub.i.i_43_111 (bvadd i134.i.i_43_97 #xffffffff))
                    (ite (bvult i142.i.i_43_99 sub.i.i_43_111)
                         (= cmp309.i.i_43_112 #b1)
                         (= cmp309.i.i_43_112 #b0))
                    (ite (= cmp309.i.i_43_112 #b1)
                         (= cond314.i.i_43_113 i142.i.i_43_99)
                         (= cond314.i.i_43_113 sub.i.i_43_111))
                    (= add.i.i_43_115 (bvadd i140.i.i_43_98 #x00000001))
                    (= dst_reg_43_10 i357.i.i_43_116)
                    (ite (bvugt add.i.i_43_115 i357.i.i_43_116)
                         (= cmp319.i.i_43_117 #b1)
                         (= cmp319.i.i_43_117 #b0))
                    (ite (= cmp319.i.i_43_117 #b1)
                         (= cond324.i.i_43_118 add.i.i_43_115)
                         (= cond324.i.i_43_118 i357.i.i_43_116))
                    (= i30.i_43_84 i346.i472.i_43_119)
                    (= i30.i32_43_95 i347.i474.i_43_120)
                    (ite (bvult i346.i472.i_43_119 i347.i474.i_43_120)
                         (= cmp264.i475.i_43_121 #b1)
                         (= cmp264.i475.i_43_121 #b0))
                    (ite (= cmp264.i475.i_43_121 #b1)
                         (= cond269.i476.i_43_122 i346.i472.i_43_119)
                         (= cond269.i476.i_43_122 i347.i474.i_43_120))
                    (= i29.i_43_83 i348.i478.i_43_123)
                    (= i29.i29_43_94 i349.i480.i_43_124)
                    (ite (bvugt i348.i478.i_43_123 i349.i480.i_43_124)
                         (= cmp274.i481.i_43_125 #b1)
                         (= cmp274.i481.i_43_125 #b0))
                    (ite (= cmp274.i481.i_43_125 #b1)
                         (= cond279.i482.i_43_126 i348.i478.i_43_123)
                         (= cond279.i482.i_43_126 i349.i480.i_43_124))))))
(let ((a!5 (=> (or a!1
                   a!2
                   (and (= cmp.not.i_43_106 #b0) (= narrow_43_103 #b0))
                   (= narrow_43_103 #b1))
               a!4)))
  (and a!5
       a!6
       a!7
       a!8
       (= dst_reg_43_0 dst_reg_43_0)
       (= dst_reg_43_1 dst_reg_43_1)
       (= dst_reg_43_2 dst_reg_43_2)
       (= dst_reg_43_3 dst_reg_43_3)
       (= dst_reg_43_4 dst_reg_43_4)
       (= dst_reg_43_5 dst_reg_43_5)
       (= dst_reg_43_6 dst_reg_43_6)
       (= dst_reg_43_7 dst_reg_43_7)
       (= dst_reg_43_8 dst_reg_43_8)
       (= dst_reg_43_9 dst_reg_43_9)
       (= dst_reg_43_10 dst_reg_43_10)
       (= dst_reg_43_11 dst_reg_43_11)
       (= dst_reg_43_12 dst_reg_43_12)
       (= dst_reg_43_13 dst_reg_43_13)
       (= dst_reg_43_14 dst_reg_43_14)
       (= dst_reg_43_15 dst_reg_43_15)
       (= dst_reg_43_16 dst_reg_43_16)
       (= dst_reg_43_17 dst_reg_43_17)
       (= src_reg_43_18 src_reg_43_18)
       (= src_reg_43_19 src_reg_43_19)
       (= src_reg_43_20 src_reg_43_20)
       (= src_reg_43_21 src_reg_43_21)
       (= src_reg_43_22 src_reg_43_22)
       (= src_reg_43_23 src_reg_43_23)
       (= src_reg_43_24 src_reg_43_24)
       (= src_reg_43_25 src_reg_43_25)
       (= src_reg_43_26 src_reg_43_26)
       (= src_reg_43_27 src_reg_43_27)
       (= src_reg_43_28 src_reg_43_28)
       (= src_reg_43_29 src_reg_43_29)
       (= src_reg_43_30 src_reg_43_30)
       (= src_reg_43_31 src_reg_43_31)
       (= src_reg_43_32 src_reg_43_32)
       (= src_reg_43_33 src_reg_43_33)
       (= src_reg_43_34 src_reg_43_34)
       (= src_reg_43_35 src_reg_43_35)
       (= other_branch_dst_reg_43_36 other_branch_dst_reg_43_36)
       (= other_branch_dst_reg_43_37 other_branch_dst_reg_43_37)
       (= other_branch_dst_reg_43_38 other_branch_dst_reg_43_38)
       (= other_branch_dst_reg_43_39 other_branch_dst_reg_43_39)
       (= other_branch_dst_reg_43_40 other_branch_dst_reg_43_40)
       (= other_branch_dst_reg_43_41 other_branch_dst_reg_43_41)
       (= other_branch_dst_reg_43_42 other_branch_dst_reg_43_42)
       (= other_branch_dst_reg_43_43 other_branch_dst_reg_43_43)
       (= other_branch_dst_reg_43_44 other_branch_dst_reg_43_44)
       (= other_branch_dst_reg_43_45 other_branch_dst_reg_43_45)
       (= other_branch_dst_reg_43_46 other_branch_dst_reg_43_46)
       (= other_branch_dst_reg_43_47 other_branch_dst_reg_43_47)
       (= other_branch_dst_reg_43_48 other_branch_dst_reg_43_48)
       (= other_branch_dst_reg_43_49 other_branch_dst_reg_43_49)
       (= other_branch_dst_reg_43_50 other_branch_dst_reg_43_50)
       (= other_branch_dst_reg_43_51 other_branch_dst_reg_43_51)
       (= other_branch_dst_reg_43_52 other_branch_dst_reg_43_52)
       (= other_branch_dst_reg_43_53 other_branch_dst_reg_43_53)
       (= other_branch_src_reg_43_54 other_branch_src_reg_43_54)
       (= other_branch_src_reg_43_55 other_branch_src_reg_43_55)
       (= other_branch_src_reg_43_56 other_branch_src_reg_43_56)
       (= other_branch_src_reg_43_57 other_branch_src_reg_43_57)
       (= other_branch_src_reg_43_58 other_branch_src_reg_43_58)
       (= other_branch_src_reg_43_59 other_branch_src_reg_43_59)
       (= other_branch_src_reg_43_60 other_branch_src_reg_43_60)
       (= other_branch_src_reg_43_61 other_branch_src_reg_43_61)
       (= other_branch_src_reg_43_62 other_branch_src_reg_43_62)
       (= other_branch_src_reg_43_63 other_branch_src_reg_43_63)
       (= other_branch_src_reg_43_64 other_branch_src_reg_43_64)
       (= other_branch_src_reg_43_65 other_branch_src_reg_43_65)
       (= other_branch_src_reg_43_66 other_branch_src_reg_43_66)
       (= other_branch_src_reg_43_67 other_branch_src_reg_43_67)
       (= other_branch_src_reg_43_68 other_branch_src_reg_43_68)
       (= other_branch_src_reg_43_69 other_branch_src_reg_43_69)
       (= other_branch_src_reg_43_70 other_branch_src_reg_43_70)
       (= other_branch_src_reg_43_71 other_branch_src_reg_43_71)
       (= #x00000001 i.i_43_74)
       (= dst_reg_43_2 i21.i_43_75)
       (= dst_reg_43_3 i22.i_43_76)
       (= dst_reg_43_4 i23.i_43_77)
       (= dst_reg_43_5 i24.i_43_78)
       (= dst_reg_43_6 i25.i_43_79)
       (= dst_reg_43_7 i26.i_43_80)
       (= dst_reg_43_8 i27.i_43_81)
       (= dst_reg_43_9 i28.i_43_82)
       (= dst_reg_43_10 i29.i_43_83)
       (= dst_reg_43_11 i30.i_43_84)
       (= #x00000001 i.i2_43_85)
       (= src_reg_43_20 i21.i5_43_86)
       (= src_reg_43_21 i22.i8_43_87)
       (= src_reg_43_22 i23.i11_43_88)
       (= src_reg_43_23 i24.i14_43_89)
       (= src_reg_43_24 i25.i17_43_90)
       (= src_reg_43_25 i26.i20_43_91)
       (= src_reg_43_26 i27.i23_43_92)
       (= src_reg_43_27 i28.i26_43_93)
       (= src_reg_43_28 i29.i29_43_94)
       (= src_reg_43_29 i30.i32_43_95)
       (= dst_reg_43_10 i132.i.i_43_96)
       (= dst_reg_43_11 i134.i.i_43_97)
       (= src_reg_43_28 i140.i.i_43_98)
       (= src_reg_43_29 i142.i.i_43_99)
       (ite (bvule i134.i.i_43_97 i140.i.i_43_98)
            (= cmp251.not.i.i_43_100 #b1)
            (= cmp251.not.i.i_43_100 #b0))
       (ite (bvugt i132.i.i_43_96 i142.i.i_43_99)
            (= cmp255.i.i_43_101 #b1)
            (= cmp255.i.i_43_101 #b0))
       (ite (= cmp251.not.i.i_43_100 #b1)
            (= narrow_43_103 #b1)
            (= narrow_43_103 cmp255.i.i_43_101)))))))

;{"dst_reg":["dst_reg_43_0","dst_reg_43_1",[""],["dst_reg_43_2","dst_reg_43_3"],"dst_reg_43_4","dst_reg_43_5","dst_reg_43_6","dst_reg_43_7","dst_reg_43_8","dst_reg_43_9","dst_reg_43_10","dst_reg_43_11","dst_reg_43_12","dst_reg_43_13","","","dst_reg_43_14","dst_reg_43_15","dst_reg_43_16"],"other_branch_dst_reg":["other_branch_dst_reg_43_36","other_branch_dst_reg_43_37",[""],["other_branch_dst_reg_43_38","other_branch_dst_reg_43_39"],"other_branch_dst_reg_43_40","other_branch_dst_reg_43_41","other_branch_dst_reg_43_42","other_branch_dst_reg_43_43","other_branch_dst_reg_43_44","other_branch_dst_reg_43_45","other_branch_dst_reg_43_46","other_branch_dst_reg_43_47","other_branch_dst_reg_43_48","other_branch_dst_reg_43_49","","","other_branch_dst_reg_43_50","other_branch_dst_reg_43_51","other_branch_dst_reg_43_52"],"other_branch_src_reg":["other_branch_src_reg_43_54","other_branch_src_reg_43_55",[""],["other_branch_src_reg_43_56","other_branch_src_reg_43_57"],"other_branch_src_reg_43_58","other_branch_src_reg_43_59","other_branch_src_reg_43_60","other_branch_src_reg_43_61","other_branch_src_reg_43_62","other_branch_src_reg_43_63","other_branch_src_reg_43_64","other_branch_src_reg_43_65","other_branch_src_reg_43_66","other_branch_src_reg_43_67","","","other_branch_src_reg_43_68","other_branch_src_reg_43_69","other_branch_src_reg_43_70"],"src_reg":["src_reg_43_18","src_reg_43_19",[""],["src_reg_43_20","src_reg_43_21"],"src_reg_43_22","src_reg_43_23","src_reg_43_24","src_reg_43_25","src_reg_43_26","src_reg_43_27","src_reg_43_28","src_reg_43_29","src_reg_43_30","src_reg_43_31","","","src_reg_43_32","src_reg_43_33","src_reg_43_34"]}
;{"dst_reg":["dst_reg_43_199","dst_reg_43_200",[""],["dst_reg_43_201","dst_reg_43_202"],"dst_reg_43_203","dst_reg_43_204","dst_reg_43_205","dst_reg_43_206","dst_reg_43_207","dst_reg_43_208","dst_reg_43_209","dst_reg_43_210","dst_reg_43_211","dst_reg_43_212","","","dst_reg_43_213","dst_reg_43_214","dst_reg_43_215"],"other_branch_dst_reg":["other_branch_dst_reg_43_235","other_branch_dst_reg_43_236",[""],["other_branch_dst_reg_43_237","other_branch_dst_reg_43_238"],"other_branch_dst_reg_43_239","other_branch_dst_reg_43_240","other_branch_dst_reg_43_241","other_branch_dst_reg_43_242","other_branch_dst_reg_43_243","other_branch_dst_reg_43_244","other_branch_dst_reg_43_245","other_branch_dst_reg_43_246","other_branch_dst_reg_43_247","other_branch_dst_reg_43_248","","","other_branch_dst_reg_43_249","other_branch_dst_reg_43_250","other_branch_dst_reg_43_251"],"other_branch_src_reg":["other_branch_src_reg_43_253","other_branch_src_reg_43_254",[""],["other_branch_src_reg_43_255","other_branch_src_reg_43_256"],"other_branch_src_reg_43_257","other_branch_src_reg_43_258","other_branch_src_reg_43_259","other_branch_src_reg_43_260","other_branch_src_reg_43_261","other_branch_src_reg_43_262","other_branch_src_reg_43_263","other_branch_src_reg_43_264","other_branch_src_reg_43_265","other_branch_src_reg_43_266","","","other_branch_src_reg_43_267","other_branch_src_reg_43_268","other_branch_src_reg_43_269"],"src_reg":["src_reg_43_217","src_reg_43_218",[""],["src_reg_43_219","src_reg_43_220"],"src_reg_43_221","src_reg_43_222","src_reg_43_223","src_reg_43_224","src_reg_43_225","src_reg_43_226","src_reg_43_227","src_reg_43_228","src_reg_43_229","src_reg_43_230","","","src_reg_43_231","src_reg_43_232","src_reg_43_233"]}
